NAME : random_3
COMMENT : 50 random nodes
TYPE : TSP
DIMENSION : 50
EDGE_WEIGHT_TYPE : EUC_2D
NODE_COORD_SECTION
1 18 147
2 712 281
3 519 878
4 394 636
5 543 660
6 235 171
7 440 77
8 68 7
9 532 834
10 539 367
11 182 958
12 671 310
13 160 350
14 406 518
15 233 945
16 929 195
17 628 621
18 37 402
19 770 715
20 852 361
21 30 900
22 429 434
23 267 32
24 900 701
25 80 373
26 770 458
27 188 626
28 496 281
29 221 943
30 473 381
31 406 297
32 537 244
33 268 164
34 821 554
35 815 233
36 434 926
37 414 465
38 429 246
39 901 707
40 832 129
41 319 652
42 312 237
43 816 201
44 214 732
45 729 659
46 801 481
47 540 310
48 827 433
49 194 217
50 4 912
EOF